c preprocessed version of munin4-wpp, 38 vertices, 109 edges
p td 38 109
0 1
0 2
1 2
7 1
6 1
8 1
3 2
27 2
4 3
23 3
27 3
26 3
4 5
23 4
4 33
6 5
8 5
33 5
6 7
6 32
6 9
6 10
6 20
6 16
6 14
6 21
6 8
25 6
28 6
31 6
8 7
7 32
7 9
28 7
31 7
8 9
8 10
8 20
8 16
8 14
8 21
25 8
28 8
31 8
10 11
10 18
12 11
18 11
11 19
11 20
15 11
13 12
14 12
15 12
14 13
13 15
17 13
15 16
15 17
16 17
20 19
21 22
23 21
23 22
24 23
25 23
26 23
24 25
26 27
30 26
31 26
28 27
29 27
28 29
30 31
34 37
34 35
34 13
34 17
34 18
34 19
34 36
35 37
35 22
35 0
35 33
35 32
35 9
35 36
35 24
35 29
35 30
36 37
36 0
36 32
36 9
36 29
36 30
37 13
37 22
37 0
37 33
37 9
37 19
37 17
37 18
37 24
37 29
37 30
